bomb.3.tsp
NAME : GeneratedProblem
COMMENT : SVGCrosshatch
TYPE : TSP
DIMENSION : 10
EDGE_WEIGHT_TYPE : EUC_2D
NODE_COORD_SECTION
1 11700 7800
2 11700 7900
3 11700 8000
4 11700 8100
5 11700 8200
6 11700 8300
7 11700 8400
8 11800 8400
9 11900 8400
10 12000 8400
EOF
