bomb.3.out.txt
NAME : GeneratedProblem.1571.tour
COMMENT : Length = 1571
COMMENT : Found by LKH [Keld Helsgaun] Sat Nov 24 14:17:56 2018
TYPE : TOUR
DIMENSION : 10
TOUR_SECTION
1
2
3
4
5
6
7
8
9
10
-1
EOF
